c status 185 1469274561545
c status 106 1469274561550
c status 105 1469274561706
c status 104 1469274561746
c status 101 1469274561969
c status 100 1469274562322
c status 99 1469274563570
c status 98 1469274564400
s td 54 98 225
b 1 14 47 215 163 207 168 165 201 3 36 204 148 180 147 187 184 15 146 220 114 136 143 125 80 102 43 34 23 69 58 91 225
b 2 47 215 163 207 168 199 165 201 3 36 204 222 148 180 217 147 150 187 184 186 15 146 220 183 45 114 136 209 143 26 19 125 80 102 43 34 23 189 205 69 170 151 58 91 6 225 37
b 3 215 163 207 168 199 165 201 3 36 204 222 148 180 185 144 217 12 147 150 187 184 186 15 181 145 146 218 220 183 45 114 136 209 143 26 19 21 125 80 102 43 34 23 189 223 205 69 170 151 58 91 40 32 6 225 37
b 4 31 162 198 168 201 204 180 185 144 217 219 12 11 45 48 46 39 33 35 38 43 34 44 42 69 151 40 32 37 190 1 178
b 5 169 164 167 203 162 163 168 165 36 13 20 150 187 186 188 220 177 175 179 176 173 38 113 174 208 172 80 44 24 223 152 170 151 58 5 32 206
b 6 200 164 167 203 162 198 207 199 201 3 13 18 219 150 184 11 181 146 218 220 183 216 210 212 211 209 213 33 208 205 58 206 37 166
b 7 164 167 203 162 198 163 207 168 199 165 201 3 36 204 13 222 20 18 219 147 150 187 184 186 11 188 181 145 146 218 220 183 216 210 212 177 175 211 209 213 179 176 173 39 33 38 113 174 208 172 80 44 24 223 205 152 170 151 58 5 32 206 37 142 166
b 8 167 203 162 198 163 207 168 199 165 201 3 36 204 13 222 224 20 148 185 18 219 147 150 187 184 186 221 11 188 181 145 146 218 220 183 216 210 212 177 175 211 209 213 179 176 173 39 33 35 38 113 174 208 172 80 44 42 24 223 205 152 170 151 58 5 32 206 22 37 142 166
b 9 162 198 163 207 168 199 165 201 3 36 204 13 222 224 20 148 180 185 144 18 217 219 12 147 150 187 184 186 221 11 188 181 145 146 218 220 183 45 216 210 212 48 177 175 46 211 209 213 179 176 173 39 33 35 38 113 174 208 172 80 43 34 44 42 24 223 205 69 152 170 151 58 5 40 32 206 22 37 2 142 166 190 1 178
b 10 163 207 168 199 165 201 3 36 204 13 222 224 20 148 180 185 144 18 217 219 12 147 150 187 184 186 221 15 11 188 181 145 146 218 220 183 45 216 210 212 48 114 136 177 175 46 211 209 213 143 179 176 173 26 39 33 35 38 19 21 113 174 208 125 172 80 102 43 34 44 42 23 24 189 223 205 69 152 170 151 58 91 5 40 32 206 6 225 22 37 2 142 166 190 1 25 178
b 11 207 168 199 165 201 3 36 204 13 222 224 20 148 180 185 144 18 217 219 12 147 150 187 184 186 221 15 11 188 181 145 146 218 220 183 45 216 210 212 48 114 136 177 175 46 211 209 213 171 143 179 176 173 26 39 33 35 38 19 21 113 174 208 125 172 80 102 43 34 44 42 23 24 189 223 205 69 152 170 151 58 156 91 5 40 32 206 6 225 22 37 2 142 166 190 1 25 178
b 12 199 165 201 3 36 204 13 222 224 20 148 180 185 144 18 217 219 12 147 150 187 184 186 221 15 11 188 181 145 146 218 220 183 45 216 210 212 48 114 136 177 175 46 211 209 213 171 143 179 176 173 26 39 33 35 38 19 21 113 174 208 125 172 80 102 43 34 44 42 23 24 189 223 205 69 152 170 151 58 156 91 5 40 32 206 6 225 22 37 2 142 166 154 190 1 25 178
b 13 9 7 196 194 155 182 159 27 10 8 222 224 217 219 221 218 220 216 212 136 177 46 213 28 174 80 30 44 223 5 6 225 166 214
b 14 191 7 196 194 155 182 157 27 192 197 195 224 20 180 185 187 184 186 188 181 183 210 46 209 173 113 174 208 125 172 42 23 189 152 58 91 5 37 2 190
b 15 7 196 194 155 182 159 157 160 27 192 197 10 8 195 222 224 20 180 185 217 219 187 184 186 221 188 181 218 220 183 216 210 212 114 136 177 175 46 211 209 213 179 173 26 28 113 174 208 125 172 80 30 44 42 23 24 189 223 152 58 91 5 6 225 37 2 142 166 190 214
b 16 196 194 155 182 159 157 160 27 192 197 10 8 195 222 224 20 180 185 217 219 187 184 186 221 188 181 218 220 183 216 210 212 114 136 177 175 46 211 209 213 179 176 173 26 28 113 174 208 125 172 80 102 30 44 42 23 24 189 223 152 58 91 5 6 225 37 2 142 166 190 214
b 17 194 155 182 159 157 160 27 192 197 10 8 195 222 224 20 180 185 217 219 187 184 186 221 188 181 218 220 183 216 210 212 114 136 177 175 46 211 209 213 143 179 176 173 26 28 39 113 174 208 125 172 80 102 30 44 42 23 24 189 223 152 58 91 5 6 225 22 37 2 142 166 190 214
b 18 153 161 158 149 155 159 157 192 8 148 144 147 150 187 221 15 145 146 48 211 173 28 33 208 172 80 189 205 69 152 170 151 156 91 40 225 22 1
b 19 193 161 158 149 182 160 192 197 10 216 48 136 175 209 171 143 179 38 21 113 30 225
b 20 161 158 149 155 182 159 157 160 192 197 10 8 195 148 144 147 150 187 221 15 145 146 216 48 136 177 175 211 209 171 143 179 173 28 33 38 21 113 208 172 80 30 23 189 205 69 152 170 151 156 91 40 6 225 22 1
b 21 158 149 155 182 159 157 160 27 192 197 10 8 195 148 144 147 150 187 221 15 145 146 45 216 212 48 114 136 177 175 211 209 171 143 179 176 173 28 33 38 21 113 208 125 172 80 30 23 189 205 69 152 170 151 156 91 40 6 225 22 154 1
b 22 149 155 182 159 157 160 27 192 197 10 8 195 148 144 147 150 187 221 15 145 146 45 216 210 212 48 114 136 177 175 211 209 171 143 179 176 173 28 33 38 21 113 174 208 125 172 80 102 30 43 23 24 189 205 69 152 170 151 156 91 40 6 225 22 154 1
b 23 155 182 159 157 160 27 192 197 10 8 195 222 224 20 148 180 185 144 18 217 219 147 150 187 184 186 221 15 188 181 145 146 218 220 183 45 216 210 212 48 114 136 177 175 46 211 209 213 171 143 179 176 173 26 28 39 33 38 21 113 174 208 125 172 80 102 30 43 34 44 42 23 24 189 223 205 69 152 170 151 58 156 91 5 40 206 6 225 22 37 2 142 166 154 190 214 1
b 24 27 192 197 10 8 195 13 222 224 20 148 180 185 144 18 217 219 12 147 150 187 184 186 221 15 11 188 181 145 146 218 220 183 45 216 210 212 48 114 136 177 175 46 211 209 213 171 143 179 176 173 26 28 39 33 38 19 21 113 174 208 125 172 80 102 30 43 34 44 42 23 24 189 223 205 69 152 170 151 58 156 91 5 40 206 6 225 22 37 2 142 166 154 190 214 1
b 25 192 197 10 8 195 13 222 224 20 148 180 185 144 18 217 219 12 147 150 187 184 186 221 15 11 188 181 145 146 218 220 183 45 216 210 212 48 114 136 177 175 46 211 209 213 171 143 179 176 173 26 28 39 33 38 19 21 113 174 208 125 172 80 102 30 43 34 44 42 23 24 189 223 205 69 152 170 151 58 156 91 5 40 206 6 225 22 37 2 142 166 154 190 214 1 25
b 26 197 10 8 195 13 222 224 20 148 180 185 144 18 217 219 12 147 150 187 184 186 221 15 11 188 181 145 146 218 220 183 45 216 210 212 48 114 136 177 175 46 211 209 213 171 143 179 176 173 26 28 39 33 38 19 21 113 174 208 125 172 80 102 30 43 34 44 42 23 24 189 223 205 69 152 170 151 58 156 91 5 40 206 6 225 22 37 2 142 166 154 190 214 1 25 178
b 27 10 8 195 13 222 224 20 148 180 185 144 18 217 219 12 147 150 187 184 186 221 15 11 188 181 145 146 218 220 183 45 216 210 212 48 114 136 177 175 46 211 209 213 171 143 179 176 173 26 28 39 33 38 19 21 113 174 208 125 172 80 102 30 43 34 44 42 23 24 189 223 205 69 152 170 151 58 156 91 5 40 206 6 225 22 37 2 142 166 154 190 4 214 1 25 178
b 28 8 195 13 222 224 20 148 180 185 144 18 217 219 12 147 150 187 184 186 221 15 11 188 181 145 146 218 220 183 45 216 210 212 48 114 136 177 175 46 211 209 213 171 143 179 176 173 26 28 39 33 38 19 21 113 174 208 125 172 80 102 30 43 34 44 42 23 24 189 223 205 69 152 170 151 58 156 91 5 40 206 6 225 22 37 2 142 166 154 190 4 202 214 1 25 178
b 29 13 222 224 20 148 180 185 144 18 217 219 12 147 150 187 184 186 221 15 11 188 181 145 146 218 220 183 45 216 210 212 48 114 136 177 175 46 211 209 213 171 143 179 176 173 26 28 39 33 35 38 19 21 113 174 208 125 172 80 102 30 43 34 44 42 23 24 189 223 205 69 152 170 151 58 156 91 5 40 32 206 6 225 22 37 2 142 166 154 190 4 202 214 1 25 178
b 30 18 217 219 12 147 150 187 184 186 221 15 11 188 181 145 146 218 220 183 45 216 210 212 48 114 136 177 175 46 211 209 213 171 143 179 176 173 26 28 39 33 35 38 19 21 113 174 208 125 172 80 102 30 43 34 44 42 23 24 189 223 205 69 152 170 151 58 156 91 5 40 32 206 6 225 22 37 2 142 166 154 190 4 17 202 214 1 25 178
b 31 30 43 34 44 42 23 24 189 223 205 69 152 170 151 58 156 91 5 40 32 206 6 225 22 37 2 142 166 154 16 190 4 17 202 214 1 25 178
b 32 29 41 54 51 53 57 63 64 50 55 52 132 100 65 97 85 49 83 115 79 138 120 104 124 37 190 4 17 202 214
b 33 41 54 51 53 57 63 64 66 50 55 86 52 126 132 133 100 101 65 98 97 85 49 83 115 116 121 79 84 82 138 139 120 106 104 124 37 190 4 17 202 214
b 34 54 51 53 57 63 64 66 73 50 55 88 86 90 94 52 128 123 126 132 133 100 101 65 98 97 85 49 83 115 116 121 79 84 82 138 139 120 74 72 109 106 140 104 124 37 142 166 154 190 4 17 202 214
b 35 75 67 70 71 57 63 64 66 73 127 55 94 92 131 60 59 65 74 72 109 111 62 61 154 178
b 36 67 70 71 51 57 63 64 66 73 50 127 55 86 94 92 87 123 131 60 59 101 65 137 85 141 49 120 74 72 109 111 62 61 104 107 154 25 178
b 37 70 71 51 57 63 64 66 73 50 127 55 88 86 94 92 87 52 128 123 131 60 59 101 65 137 85 141 49 121 138 120 74 72 109 111 106 108 62 61 104 107 124 103 2 142 154 25 178
b 38 71 51 53 57 63 64 66 73 50 127 129 55 88 86 94 92 87 89 52 128 123 126 131 60 59 101 65 137 85 141 49 121 122 138 139 120 74 72 109 111 106 108 62 61 104 107 124 103 2 142 154 25 178
b 39 51 53 57 63 64 66 73 50 127 129 55 88 86 90 94 92 87 89 52 128 123 126 131 60 132 133 59 100 101 65 137 98 97 85 141 49 83 115 116 121 79 84 82 122 138 139 120 74 72 109 111 106 108 140 62 61 104 107 124 103 37 2 142 166 154 190 4 17 202 214 25 178
b 40 63 64 66 73 50 127 129 55 88 86 90 94 92 87 89 52 128 123 126 131 60 132 133 59 100 99 101 65 56 137 98 97 85 141 49 83 115 116 119 121 79 84 82 122 138 139 120 74 72 109 111 106 108 140 62 61 104 107 124 103 37 2 142 166 154 190 4 17 202 214 25 178
b 41 66 73 50 127 129 55 88 86 90 94 92 87 89 52 128 123 126 131 60 132 133 59 100 99 101 65 56 137 135 98 97 85 141 49 83 115 116 119 121 79 84 82 122 138 139 120 74 72 109 111 106 108 140 62 61 104 107 124 103 37 2 142 166 154 190 4 17 202 214 25 178
b 42 78 76 77 112 134 96 88 86 90 94 92 87 89 60 56 98 97 85 83 116 119 79 84 82 138 62 61 190 17 214
b 43 117 77 112 134 68 127 129 128 123 126 131 59 99 65 137 135 98 97 49 83 115 116 119 121 79 122 120 62 124 4
b 44 76 77 112 134 95 96 68 88 86 90 94 92 87 89 60 132 59 56 135 98 97 85 83 116 119 79 84 82 138 62 61 190 17 214 1
b 45 77 112 134 95 96 68 127 129 88 86 90 94 92 87 89 128 123 126 131 60 132 133 59 99 65 56 137 135 98 97 85 49 83 115 116 119 121 79 84 82 122 138 120 62 61 124 16 190 4 17 202 214 1
b 46 81 93 105 118 130 95 68 99 56 137 85 119 82 104 124 16 1
b 47 93 105 118 130 112 95 96 68 126 100 99 56 137 85 119 82 138 120 106 104 124 16 1
b 48 105 118 130 112 95 96 68 127 126 132 100 99 56 137 85 115 119 121 82 138 139 120 106 104 107 124 16 1
b 49 118 130 112 95 96 68 127 128 126 132 133 100 99 56 137 85 115 119 121 82 122 138 139 120 106 140 104 107 124 16 1
b 50 130 112 134 95 96 68 127 128 126 132 133 100 99 56 137 85 141 115 119 121 82 122 138 139 120 106 140 104 107 124 16 1
b 51 110 95 96 129 55 90 94 92 52 128 131 100 99 101 98 97 74 72 109 111 106 108 104 107 103 2 166
b 52 112 134 95 96 68 127 129 88 86 90 94 92 87 89 128 123 126 131 60 132 133 59 100 99 65 56 137 135 98 97 85 141 49 83 115 116 119 121 79 84 82 122 138 139 120 106 140 62 61 104 107 124 16 190 4 17 202 214 1
b 53 95 96 68 127 129 55 88 86 90 94 92 87 89 52 128 123 126 131 60 132 133 59 100 99 101 65 56 137 135 98 97 85 141 49 83 115 116 119 121 79 84 82 122 138 139 120 74 72 109 111 106 108 140 62 61 104 107 124 103 2 166 16 190 4 17 202 214 1
b 54 127 129 55 88 86 90 94 92 87 89 52 128 123 126 131 60 132 133 59 100 99 101 65 56 137 135 98 97 85 141 49 83 115 116 119 121 79 84 82 122 138 139 120 74 72 109 111 106 108 140 62 61 104 107 124 103 37 2 142 166 154 16 190 4 17 202 214 1 25 178
1 2
2 3
3 10
10 11
11 12
12 29
29 28
28 27
27 26
26 25
25 24
24 23
29 30
10 9
23 17
17 16
9 8
16 15
23 22
8 7
22 21
21 20
15 14
30 31
20 18
7 5
15 13
7 6
9 4
20 19
31 54
54 41
41 40
40 39
54 53
53 52
39 38
39 34
52 45
38 37
34 33
37 36
45 44
52 50
50 49
45 43
33 32
44 42
49 48
53 51
36 35
48 47
47 46
